NAME : ClusterId_1 
COMMENT : (Gillet and Johnson) 
TYPE : CVRP 
DIMENSION : 20 
EDGE_WEIGHT_TYPE : EUC_2D 
CAPACITY : 500 
NODE_COORD_SECTION 
1 -33 33 
123 -1 49 
136 2 29 
224 -5 54 
226 -11 60 
12 -18 64 
147 1 34 
119 -3 17 
124 -4 17 
44 -7 52 
236 -19 59 
63 -12 42 
158 -17 49 
83 -20 51 
250 -14 44 
238 -13 38 
178 -16 36 
70 -18 34 
225 -26 43 
164 -28 39 
DEMAND_SECTION 
1 1000
123 4
136 25
224 39
226 83
12 25
147 50
119 18
124 23
44 43
236 17
63 37
158 79
83 99
250 50
238 28
178 36
70 39
225 99
164 97
DEPOT_SECTION 
1
 -1
EOF